cases/pglib-opf/pglib_opf_case179_goc.m
ipopt
ACP
[info | PowerModels]: removing 1 cost terms from generator 24: [3154.6461999999997, 0.0]
[info | PowerModels]: removing 1 cost terms from generator 4: [658.0729, 0.0]
[info | PowerModels]: removing 1 cost terms from generator 1: [2712.5018, 0.0]
[info | PowerModels]: removing 1 cost terms from generator 12: [3523.2014, 0.0]
[info | PowerModels]: removing 1 cost terms from generator 29: [4987.6052, 0.0]
[info | PowerModels]: removing 1 cost terms from generator 20: [1920.3903, 0.0]
[info | PowerModels]: removing 1 cost terms from generator 2: [2576.7823, 0.0]
[info | PowerModels]: removing 1 cost terms from generator 6: [2784.4304, 0.0]
[info | PowerModels]: removing 1 cost terms from generator 25: [2234.9251, 0.0]
[info | PowerModels]: removing 1 cost terms from generator 23: [2826.7848999999997, 0.0]
[info | PowerModels]: removing 1 cost terms from generator 22: [12467.253999999999, 0.0]
[info | PowerModels]: removing 1 cost terms from generator 11: [4935.4886, 0.0]
[info | PowerModels]: removing 1 cost terms from generator 13: [2189.1639, 0.0]
[info | PowerModels]: removing 1 cost terms from generator 5: [3178.4817, 0.0]
[info | PowerModels]: removing 1 cost terms from generator 15: [803.5714, 0.0]
[info | PowerModels]: removing 1 cost terms from generator 27: [1417.4214, 0.0]
[info | PowerModels]: removing 1 cost terms from generator 28: [861.4737999999999, 0.0]
[info | PowerModels]: removing 1 cost terms from generator 16: [3391.2129999999997, 0.0]
[info | PowerModels]: removing 1 cost terms from generator 14: [2538.3461, 0.0]
[info | PowerModels]: removing 1 cost terms from generator 21: [3082.0177999999996, 0.0]
[info | PowerModels]: removing 1 cost terms from generator 7: [4189.9242, 0.0]
[info | PowerModels]: removing 1 cost terms from generator 8: [2688.7509999999997, 0.0]
[info | PowerModels]: removing 1 cost terms from generator 26: [723.0771, 0.0]
[info | PowerModels]: removing 1 cost terms from generator 17: [2545.7586, 0.0]
[info | PowerModels]: removing 1 cost terms from generator 10: [2371.8395, 0.0]
[info | PowerModels]: removing 1 cost terms from generator 19: [848.7093, 0.0]
[info | PowerModels]: removing 1 cost terms from generator 9: [2664.7901, 0.0]
[info | PowerModels]: removing 1 cost terms from generator 18: [716.8126, 0.0]
[info | PowerModels]: removing 1 cost terms from generator 3: [3345.8505999999998, 0.0]

******************************************************************************
This program contains Ipopt, a library for large-scale nonlinear optimization.
 Ipopt is released as open source code under the Eclipse Public License (EPL).
         For more information visit http://projects.coin-or.org/Ipopt
******************************************************************************

This is Ipopt version 3.13.2, running with linear solver mumps.
NOTE: Other linear solvers might be more efficient (see Ipopt documentation).

Number of nonzeros in equality constraint Jacobian...:     1345
Number of nonzeros in inequality constraint Jacobian.:      888
Number of nonzeros in Lagrangian Hessian.............:        0

Total number of variables............................:      471
                     variables with only lower bounds:        0
                variables with lower and upper bounds:      292
                     variables with only upper bounds:        0
Total number of equality constraints.................:      443
Total number of inequality constraints...............:      444
        inequality constraints with only lower bounds:      222
   inequality constraints with lower and upper bounds:        0
        inequality constraints with only upper bounds:      222

iter    objective    inf_pr   inf_du lg(mu)  ||d||  lg(rg) alpha_du alpha_pr  ls
   0  7.1416038e+05 3.62e+01 2.79e+01  -1.0 0.00e+00    -  0.00e+00 0.00e+00   0
   1  7.1475505e+05 3.55e+01 2.74e+01  -1.0 4.42e+01    -  2.18e-02 2.03e-02h  1
   2  7.1412766e+05 3.40e+01 2.95e+01  -1.0 4.44e+01    -  2.17e-03 4.27e-02f  1
   3  7.1402177e+05 3.27e+01 2.70e+01  -1.0 4.52e+01    -  5.46e-02 3.86e-02h  1
   4  7.1659080e+05 2.99e+01 2.31e+01  -1.0 3.80e+01    -  1.70e-01 8.38e-02h  1
   5  7.2279054e+05 2.44e+01 1.89e+01  -1.0 3.39e+01    -  4.41e-01 1.85e-01h  1
   6  7.4472362e+05 4.82e+00 1.47e+01  -1.0 3.05e+01    -  4.22e-01 8.02e-01h  1
   7  7.4492432e+05 4.63e+00 1.21e+01  -1.0 1.13e+01    -  4.39e-01 4.11e-02h  1
   8  7.5052653e+05 1.14e+00 1.13e+01  -1.0 1.28e+01    -  1.89e-02 7.53e-01h  1
   9  7.5150780e+05 5.47e-01 8.68e+00  -1.0 3.19e+00    -  2.83e-01 5.21e-01h  1
iter    objective    inf_pr   inf_du lg(mu)  ||d||  lg(rg) alpha_du alpha_pr  ls
  10  7.5215043e+05 1.89e-01 4.55e+00  -1.0 1.16e+00    -  4.95e-01 6.55e-01h  1
  11  7.5234822e+05 2.27e-13 1.75e+00  -1.0 3.74e+00    -  6.49e-01 1.00e+00h  1
  12  7.5228559e+05 2.27e-13 4.23e-01  -1.0 2.86e+00    -  7.63e-01 4.78e-01f  2
  13  7.5226211e+05 2.27e-13 1.30e-01  -1.0 1.04e+00    -  1.00e+00 5.00e-01f  2
  14  7.5203698e+05 4.55e-13 1.41e-01  -2.5 1.63e+00    -  8.50e-01 5.53e-01f  1
  15  7.5190925e+05 2.27e-13 2.84e-02  -2.5 1.16e-01    -  9.21e-01 8.73e-01f  1
  16  7.5189093e+05 2.27e-13 2.83e-08  -2.5 1.45e-02    -  1.00e+00 1.00e+00f  1
  17  7.5188152e+05 2.27e-13 1.50e-09  -3.8 1.26e-02    -  1.00e+00 1.00e+00f  1
  18  7.5188102e+05 1.14e-13 1.84e-11  -5.7 3.57e-04    -  1.00e+00 1.00e+00f  1
  19  7.5188101e+05 1.14e-13 2.51e-14  -8.6 7.37e-06    -  1.00e+00 1.00e+00f  1

Number of Iterations....: 19

                                   (scaled)                 (unscaled)
Objective...............:   6.0308469815070612e+03    7.5188101153581834e+05
Dual infeasibility......:   2.5059036063649481e-14    3.1241736760067823e-12
Constraint violation....:   4.2916856529206562e-14    1.1368683772161603e-13
Complementarity.........:   2.5322424855444604e-09    3.1570110256874115e-07
Overall NLP error.......:   2.5322424855444604e-09    3.1570110256874115e-07


Number of objective function evaluations             = 24
Number of objective gradient evaluations             = 20
Number of equality constraint evaluations            = 24
Number of inequality constraint evaluations          = 24
Number of equality constraint Jacobian evaluations   = 1
Number of inequality constraint Jacobian evaluations = 1
Number of Lagrangian Hessian evaluations             = 1
Total CPU secs in IPOPT (w/o function evaluations)   =      0.343
Total CPU secs in NLP function evaluations           =      0.209

EXIT: Optimal Solution Found.
This is Ipopt version 3.13.2, running with linear solver mumps.
NOTE: Other linear solvers might be more efficient (see Ipopt documentation).

Number of nonzeros in equality constraint Jacobian...:     6411
Number of nonzeros in inequality constraint Jacobian.:     1940
Number of nonzeros in Lagrangian Hessian.............:    11612

Total number of variables............................:     1468
                     variables with only lower bounds:        0
                variables with lower and upper bounds:     1289
                     variables with only upper bounds:        0
Total number of equality constraints.................:     1411
Total number of inequality constraints...............:      970
        inequality constraints with only lower bounds:      222
   inequality constraints with lower and upper bounds:        0
        inequality constraints with only upper bounds:      748

iter    objective    inf_pr   inf_du lg(mu)  ||d||  lg(rg) alpha_du alpha_pr  ls
   0  7.1416038e+05 3.62e+01 1.75e+01  -1.0 0.00e+00    -  0.00e+00 0.00e+00   0
   1  7.2091843e+05 3.43e+01 1.64e+01  -1.0 3.45e+01    -  5.72e-03 5.28e-02h  2
   2  7.2204191e+05 3.33e+01 1.61e+01  -1.0 9.56e+01    -  1.07e-02 2.97e-02h  1
   3  7.2364723e+05 3.27e+01 1.56e+01  -1.0 1.75e+02    -  6.71e-02 1.91e-02h  1
   4  7.3165154e+05 3.03e+01 1.44e+01  -1.0 2.14e+02    -  1.19e-01 7.22e-02h  1
   5  7.4125858e+05 2.74e+01 2.53e+01  -1.0 3.47e+02    -  3.54e-01 9.59e-02h  1
   6  7.4920972e+05 2.49e+01 2.53e+01  -1.0 4.83e+02    -  1.06e-01 9.25e-02h  1
   7  7.5421019e+05 2.32e+01 8.96e+01  -1.0 5.73e+02    -  3.96e-01 6.66e-02h  1
   8  7.6344770e+05 2.00e+01 1.55e+02  -1.0 6.21e+02    -  2.30e-01 1.39e-01h  1
   9  7.6438511e+05 1.96e+01 6.94e+02  -1.0 6.87e+02    -  3.83e-01 1.82e-02h  1
iter    objective    inf_pr   inf_du lg(mu)  ||d||  lg(rg) alpha_du alpha_pr  ls
  10  7.8028854e+05 1.34e+01 4.46e+02  -1.0 6.91e+02    -  3.20e-01 3.19e-01H  1
  11  7.8565270e+05 9.58e+00 2.67e+02  -1.0 6.89e+02    -  4.18e-01 2.82e-01h  1
  12  7.8688756e+05 5.64e+00 2.87e+02  -1.0 5.91e+02    -  2.23e-01 4.12e-01h  1
  13  7.8362748e+05 4.94e+00 1.98e+02  -1.0 3.95e+02    -  2.10e-01 1.24e-01f  1
  14  7.8060828e+05 4.56e+00 2.19e+02  -1.0 5.24e+02    -  6.96e-03 7.72e-02f  1
  15  7.7574116e+05 4.10e+00 5.75e+01  -1.0 7.42e+02    -  3.81e-01 9.97e-02f  1
  16  7.7286480e+05 3.81e+00 5.69e+01  -1.0 7.64e+02    -  1.43e-01 7.08e-02f  1
  17  7.6739623e+05 3.32e+00 1.43e+02  -1.0 8.17e+02    -  6.86e-01 1.28e-01f  1
  18  7.6639550e+05 3.15e+00 2.11e+02  -1.0 4.69e+02    -  5.88e-01 5.33e-02f  1
  19  7.6161030e+05 2.30e+00 1.92e+02  -1.0 4.76e+02    -  8.25e-01 2.71e-01f  1
iter    objective    inf_pr   inf_du lg(mu)  ||d||  lg(rg) alpha_du alpha_pr  ls
  20  7.5927346e+05 1.81e+00 2.21e+02  -1.0 5.35e+02    -  9.94e-01 2.12e-01f  1
  21  7.5863272e+05 1.26e+00 1.62e+02  -1.0 3.17e+02    -  1.00e+00 3.01e-01h  1
  22  7.5653522e+05 1.38e+00 9.28e+01  -1.0 3.55e+02    -  9.91e-01 6.00e-01f  1
  23  7.5541921e+05 1.17e+00 7.38e+01  -1.0 7.85e+02    -  3.33e-01 2.25e-01f  1
  24  7.5533016e+05 1.27e-01 2.30e+01  -1.0 3.45e+02    -  4.65e-01 6.77e-01h  1
  25  7.5530030e+05 1.50e-01 9.37e+00  -1.0 3.84e+02    -  4.59e-01 5.56e-01h  1
  26  7.5488619e+05 6.42e+00 5.46e+00  -1.0 1.25e+03    -  3.47e-01 3.74e-01h  1
  27  7.5481840e+05 4.36e-01 1.80e+00  -1.0 3.02e+02    -  5.81e-01 5.96e-01h  1
  28  7.5483135e+05 1.76e+00 4.79e-01  -1.0 6.47e+01    -  8.64e-01 1.00e+00h  1
  29  7.5488290e+05 2.02e-02 2.70e+00  -1.0 2.79e+01    -  2.05e-01 1.00e+00h  1
iter    objective    inf_pr   inf_du lg(mu)  ||d||  lg(rg) alpha_du alpha_pr  ls
  30  7.5487046e+05 5.22e-03 2.64e-02  -1.0 4.51e+00    -  1.00e+00 1.00e+00h  1
  31  7.5447853e+05 4.79e-02 2.81e-01  -2.5 8.51e+01    -  7.47e-01 7.32e-01f  1
  32  7.5434242e+05 5.75e-02 6.89e-01  -2.5 1.03e+02    -  4.89e-01 7.17e-01h  1
  33  7.5429271e+05 1.85e-02 1.46e-01  -2.5 7.96e+01    -  7.74e-01 7.44e-01h  1
  34  7.5428567e+05 6.63e-03 1.50e+00  -2.5 3.53e+01    -  1.00e+00 4.81e-01h  1
  35  7.5428218e+05 3.35e-03 4.52e-03  -2.5 1.36e+01    -  1.00e+00 1.00e+00h  1
  36  7.5428242e+05 2.98e-05 5.20e-05  -2.5 2.24e+00    -  1.00e+00 1.00e+00h  1
  37  7.5427103e+05 3.01e-03 2.16e-01  -3.8 2.10e+01    -  7.85e-01 7.17e-01h  1
  38  7.5426755e+05 5.15e-03 3.36e-01  -3.8 1.90e+01    -  1.00e+00 8.42e-01h  1
  39  7.5426713e+05 1.39e-03 4.85e-04  -3.8 8.79e+00    -  1.00e+00 1.00e+00h  1
iter    objective    inf_pr   inf_du lg(mu)  ||d||  lg(rg) alpha_du alpha_pr  ls
  40  7.5426717e+05 1.03e-05 3.42e-06  -3.8 5.81e-01    -  1.00e+00 1.00e+00h  1
  41  7.5426644e+05 4.75e-04 2.37e-03  -5.7 5.30e+00    -  9.56e-01 9.59e-01h  1
  42  7.5426642e+05 2.02e-05 6.85e-06  -5.7 9.30e-01    -  1.00e+00 1.00e+00h  1
  43  7.5426642e+05 1.37e-08 7.46e-09  -5.7 2.20e-02    -  1.00e+00 1.00e+00h  1
  44  7.5426641e+05 1.49e-07 5.12e-08  -8.6 8.63e-02    -  1.00e+00 1.00e+00h  1
  45  7.5426641e+05 1.07e-12 1.66e-11  -8.6 1.88e-04    -  1.00e+00 1.00e+00h  1

Number of Iterations....: 45

                                   (scaled)                 (unscaled)
Objective...............:   6.0499803258071915e+03    7.5426641416841012e+05
Dual infeasibility......:   1.6596479309182758e-11    2.0691252305332597e-09
Constraint violation....:   4.7148063231361441e-13    1.0749179324420766e-12
Complementarity.........:   2.5059717558569275e-09    3.1242586397094304e-07
Overall NLP error.......:   2.5059717558569275e-09    3.1242586397094304e-07


Number of objective function evaluations             = 50
Number of objective gradient evaluations             = 46
Number of equality constraint evaluations            = 50
Number of inequality constraint evaluations          = 50
Number of equality constraint Jacobian evaluations   = 46
Number of inequality constraint Jacobian evaluations = 46
Number of Lagrangian Hessian evaluations             = 45
Total CPU secs in IPOPT (w/o function evaluations)   =      1.711
Total CPU secs in NLP function evaluations           =      2.284

EXIT: Optimal Solution Found.
Time to Solution........:4.0774829387664795
